db/data/690097271106688871550323182896029151.z3.out
unsat
-------------------
7.513429011
